************************************************************************
file with basedata            : mm48_.bas
initial value random generator: 1923818639
************************************************************************
projects                      :  1
jobs (incl. supersource/sink ):  12
horizon                       :  77
RESOURCES
  - renewable                 :  2   R
  - nonrenewable              :  2   N
  - doubly constrained        :  0   D
************************************************************************
PROJECT INFORMATION:
pronr.  #jobs rel.date duedate tardcost  MPM-Time
    1     10      0       13        5       13
************************************************************************
PRECEDENCE RELATIONS:
jobnr.    #modes  #successors   successors
   1        1          3           2   3   4
   2        3          1           5
   3        3          3           6   7  11
   4        3          2           9  10
   5        3          2           8  11
   6        3          2           9  10
   7        3          1           8
   8        3          1          10
   9        3          1          12
  10        3          1          12
  11        3          1          12
  12        1          0        
************************************************************************
REQUESTS/DURATIONS:
jobnr. mode duration  R 1  R 2  N 1  N 2
------------------------------------------------------------------------
  1      1     0       0    0    0    0
  2      1     7       7    8    9    8
         2    10       4    4    8    8
         3    10       5    5    5    7
  3      1     3       9    2    8    9
         2     7       6    2    8    5
         3    10       5    1    7    3
  4      1     1       6    7    9    9
         2     2       4    4    6    8
         3     7       3    1    4    7
  5      1     2       9    7    8    6
         2     5       6    5    6    4
         3     8       4    5    3    2
  6      1     7       7    8    7    5
         2     8       7    6    7    5
         3    10       7    1    4    4
  7      1     1       5    3   10    6
         2     1       5    4   10    4
         3     6       4    3   10    2
  8      1     1       6    6    7    6
         2     2       6    4    6    5
         3     4       6    2    4    3
  9      1     2       5    6   10   10
         2     7       2    3    9    6
         3     7       2    5    9    5
 10      1     3       3    5    2    1
         2     4       3    3    2    1
         3     7       2    2    1    1
 11      1     2       6    8    6    8
         2     5       6    6    4    8
         3     8       5    3    4    8
 12      1     0       0    0    0    0
************************************************************************
RESOURCEAVAILABILITIES:
  R 1  R 2  N 1  N 2
   15   14   76   68
************************************************************************
MAXIMAL LAGS:
from  to  type  delay
    1   12   ES      0
    1    2   ES      0
    2   12   ES      0
    1    3   ES      0
    3   12   ES      0
    1    4   ES      0
    4   12   ES      0
    1    5   ES      0
    5   12   ES      0
    1    6   ES      0
    6   12   ES      0
    1    7   ES      0
    7   12   ES      0
    1    8   ES      0
    8   12   ES      0
    1    9   ES      0
    9   12   ES      0
    1   10   ES      0
   10   12   ES      0
    1   11   ES      0
   11   12   ES      0
    1   12   ES      0
    2    5   SS    -10
    2    5   SE      7
    2    5   ES     -6
    2    5   EE     -7
    3    6   SS      8
    3    6   SE     -4
    3    6   ES     10
    3    6   EE     -8
    3    7   SS      1
    3    7   SE      5
    3    7   ES      2
    3    7   EE      3
    3   11   SS     10
    3   11   SE     -4
    3   11   ES      9
    3   11   EE     -9
    4    9   SS      5
    4    9   SE      1
    4    9   ES      8
    4    9   EE     -1
    4   10   SS     -7
    4   10   SE    -12
    4   10   ES     -1
    4   10   EE      2
    5    8   SS     12
    5    8   SE      9
    5    8   ES     -1
    5    8   EE     11
    5   11   SS      1
    5   11   SE     -6
    5   11   ES      7
    5   11   EE      5
    6    9   SS     -6
    6    9   SE      0
    6    9   ES     -1
    6    9   EE     -7
    6   10   SS     11
    6   10   SE    -12
    6   10   ES     -6
    6   10   EE      2
    7    8   SS     -1
    7    8   SE      4
    7    8   ES     -6
    7    8   EE    -12
    8   10   SS      6
    8   10   SE     -3
    8   10   ES     -2
    8   10   EE     -9
************************************************************************
